N = 10;
Dist = [|0, 520, 624, 204, 157, 383, 781, 166, 553, 977
| 520, 0, 798, 945, 544, 941, 1, 614, 332, 501
| 624, 798, 0, 20, 115, 952, 372, 900, 852, 827
| 204, 945, 20, 0, 315, 246, 60, 247, 900, 581
| 157, 544, 115, 315, 0, 970, 81, 88, 750, 498
| 383, 941, 952, 246, 970, 0, 836, 71, 779, 546
| 781, 1, 372, 60, 81, 836, 0, 785, 129, 132
| 166, 614, 900, 247, 88, 71, 785, 0, 676, 487
| 553, 332, 852, 900, 750, 779, 129, 676, 0, 970
| 977, 501, 827, 581, 498, 546, 132, 487, 970, 0 |];